(define-fun-rec
  v2
  ((x Int) (y Int) (z Int)) Int (ite (<= x 0) z (v2 (- x 1) y z)))
(define-fun-rec
  u2
  ((x Int) (y Int) (z Int)) Int
  (ite (<= x 0) y (* (u2 (- x 1) y z) (v2 (- x 1) y z))))
(define-fun
  u1
  ((x Int) (y Int)) Int (ite (<= x 0) y 0))
(define-fun
  v1
  ((x Int) (y Int)) Int (u1 y 2))
(define-fun
  j2
  () Int (* 2 (+ 2 2)))
(define-fun
  h2
  ((x Int)) Int (div x 2))
(define-fun
  h0
  ((x Int)) Int x)
(define-fun
  g3
  ((x Int)) Int (mod x 2))
(define-fun
  g2
  ((x Int) (y Int)) Int y)
(define-fun
  g1
  ((x Int) (y Int)) Int y)
(define-fun
  f3
  () Int (+ 2 2))
(define-fun
  u3
  ((x Int) (y Int)) Int (ite (<= x 0) y f3))
(define-fun
  v3
  ((x Int)) Int (u3 (g3 x) 1))
(define-fun
  w2
  ((x Int)) Int (u2 (h2 x) (v3 x) j2))
(define-fun
  fast
  ((x Int)) Int (div (* (+ 1 2) (w2 x)) (* 2 (+ 2 2))))
(define-fun
  f0
  ((x Int) (y Int)) Int (* (+ 2 y) x))
(define-funs-rec
  ((u0
    ((x Int) (y Int) (z Int)) Int)
   (v0
    ((x Int) (y Int) (z Int)) Int))
  ((ite (<= x 0) y (f0 (u0 (- x 1) y z) (v0 (- x 1) y z)))
   (ite (<= x 0) z (v1 (u0 (- x 1) y z) (v0 (- x 1) y z)))))
(define-fun
  w0
  ((x Int)) Int (u0 x 1 1))
(define-fun
  small
  ((x Int)) Int (div (w0 x) 2))
(assert-not
  (forall ((c Int)) (or (not (>= c 0)) (= (small c) (fast c)))))
